units           real
atom_style      atomic

# data file with one atom type
read_data       IN.data

pair_style      table spline 1000

#pair coefficients
pair_coeff      1 1  CCS.table O-O 5.99
pair_coeff      1 2  CCS.table O-Zn 5.99
pair_coeff      2 2  CCS.table Zn-Zn 5.99

neighbor 2.0 bin

#fix             1 all nvt temp 300.0 300.0 200.0

#velocity        all create 300 432567 dist uniform loop geom mom yes
#timestep        2.0

#thermo          100
#dump            2 all custom 100 dump.spce id type x y z fx fy fz

pair_write       1 2 500 r  1.2999991089415996 5.9999991089416 table.txt table 
thermo_style custom  step pe etotal  epair eangle fmax fnorm
run             0
minimize 