 O Zn                                   
   1.00000000000000     
     4.3339999999999996    0.0000000000000000    0.0000000000000000
     0.0000000000000000    4.3339999999999996    0.0000000000000000
     0.0000000000000000    0.0000000000000000   34.6719999999999970
   O    Zn
    16    16
Direct
  0.5000000000000000  0.5000000000000000  0.9994762721683490
  0.0000000000000000 -0.0000000000000000  0.9994762721683490
 -0.0000000000000000  0.5000000000000000  0.0625746618142352
  0.5000000000000000  0.0000000000000000  0.0625746618142352
  0.5000000000000000  0.5000000000000000  0.1248919332597359
 -0.0000000000000000 -0.0000000000000000  0.1248919332597359
  0.0000000000000000  0.5000000000000000  0.1875113731616198
  0.5000000000000000  0.0000000000000000  0.1875113731616198
  0.5000000000000000  0.5000000000000000  0.2499886268383802
 -0.0000000000000000  0.0000000000000000  0.2499886268383802
  0.5000000000000000 -0.0000000000000000  0.3126080667402641
  0.0000000000000000  0.5000000000000000  0.3126080667402641
  0.5000000000000000  0.5000000000000000  0.3749253381857647
  0.0000000000000000 -0.0000000000000000  0.3749253381857647
  0.0000000000000000  0.5000000000000000  0.4380237278316510
  0.5000000000000000 -0.0000000000000000  0.4380237278316510
  0.0000000000000000  0.5000000000000000  0.0008163874807203
  0.5000000000000000 -0.0000000000000000  0.0008163874807203
  0.5000000000000000  0.5000000000000000  0.0620859111220865
  0.0000000000000000 -0.0000000000000000  0.0620859111220865
  0.5000000000000000 -0.0000000000000000  0.1250066443890616
  0.0000000000000000  0.5000000000000000  0.1250066443890616
  0.5000000000000000  0.5000000000000000  0.1874711939097914
  0.0000000000000000 -0.0000000000000000  0.1874711939097914
 -0.0000000000000000  0.5000000000000000  0.2500288060902086
  0.5000000000000000  0.0000000000000000  0.2500288060902086
 -0.0000000000000000  0.0000000000000000  0.3124933556109384
  0.5000000000000000  0.5000000000000000  0.3124933556109384
 -0.0000000000000000  0.5000000000000000  0.3754140888779135
  0.5000000000000000  0.0000000000000000  0.3754140888779135
  0.5000000000000000  0.5000000000000000  0.4366836125192797
 -0.0000000000000000  0.0000000000000000  0.4366836125192797
 
  0.00000000E+00  0.00000000E+00  0.00000000E+00
  0.00000000E+00  0.00000000E+00  0.00000000E+00
  0.00000000E+00  0.00000000E+00  0.00000000E+00
  0.00000000E+00  0.00000000E+00  0.00000000E+00
  0.00000000E+00  0.00000000E+00  0.00000000E+00
  0.00000000E+00  0.00000000E+00  0.00000000E+00
  0.00000000E+00  0.00000000E+00  0.00000000E+00
  0.00000000E+00  0.00000000E+00  0.00000000E+00
  0.00000000E+00  0.00000000E+00  0.00000000E+00
  0.00000000E+00  0.00000000E+00  0.00000000E+00
  0.00000000E+00  0.00000000E+00  0.00000000E+00
  0.00000000E+00  0.00000000E+00  0.00000000E+00
  0.00000000E+00  0.00000000E+00  0.00000000E+00
  0.00000000E+00  0.00000000E+00  0.00000000E+00
  0.00000000E+00  0.00000000E+00  0.00000000E+00
  0.00000000E+00  0.00000000E+00  0.00000000E+00
  0.00000000E+00  0.00000000E+00  0.00000000E+00
  0.00000000E+00  0.00000000E+00  0.00000000E+00
  0.00000000E+00  0.00000000E+00  0.00000000E+00
  0.00000000E+00  0.00000000E+00  0.00000000E+00
  0.00000000E+00  0.00000000E+00  0.00000000E+00
  0.00000000E+00  0.00000000E+00  0.00000000E+00
  0.00000000E+00  0.00000000E+00  0.00000000E+00
  0.00000000E+00  0.00000000E+00  0.00000000E+00
  0.00000000E+00  0.00000000E+00  0.00000000E+00
  0.00000000E+00  0.00000000E+00  0.00000000E+00
  0.00000000E+00  0.00000000E+00  0.00000000E+00
  0.00000000E+00  0.00000000E+00  0.00000000E+00
  0.00000000E+00  0.00000000E+00  0.00000000E+00
  0.00000000E+00  0.00000000E+00  0.00000000E+00
  0.00000000E+00  0.00000000E+00  0.00000000E+00
  0.00000000E+00  0.00000000E+00  0.00000000E+00
